841.94 1
0 5 3 7 10 8 9 6 4 2 1 75 0
0 11 13 17 18 19 15 16 14 12 0
0 20 21 22 24 25 27 29 30 28 26 23 0
0 32 33 31 35 37 38 39 36 34 0
0 49 52 50 51 48 45 46 47 43 42 44 40 41 0
0 57 59 60 58 56 53 54 55 0
0 67 65 63 62 74 72 61 64 68 66 69 0
0 84 83 82 81 78 76 73 70 71 77 79 80 0
0 91 88 85 86 87 89 90 0
0 99 100 97 93 92 94 95 96 98 0
